Version identifier: 12.10.0.0 | 2019-11-26 | 843d4de
CPXPARAM_WorkMem                                 16384
CPXPARAM_MIP_Limits_TreeMemory                   24576
Tried aggregator 2 times.
Aggregator did 40 substitutions.
Reduced MIP has 184 rows, 240 columns, and 852 nonzeros.
Reduced MIP has 240 binaries, 0 generals, 0 SOSs, and 0 indicators.
Presolve time = 0,00 sec. (0,80 ticks)
Found incumbent of value 532,000000 after 0,00 sec. (1,40 ticks)
Probing time = 0,00 sec. (0,26 ticks)
Tried aggregator 1 time.
Detecting symmetries...
MIP Presolve eliminated 44 rows and 0 columns.
MIP Presolve added 88 rows and 0 columns.
Reduced MIP has 228 rows, 240 columns, and 896 nonzeros.
Reduced MIP has 240 binaries, 0 generals, 0 SOSs, and 0 indicators.
Presolve time = 0,00 sec. (1,09 ticks)
Probing time = 0,00 sec. (0,25 ticks)
Clique table members: 552.
MIP emphasis: balance optimality and feasibility.
MIP search method: dynamic search.
Parallel mode: deterministic, using up to 16 threads.
Root relaxation solution time = 0,00 sec. (0,90 ticks)

        Nodes                                         Cuts/
   Node  Left     Objective  IInf  Best Integer    Best Bound    ItCnt     Gap

*     0+    0                          532,0000        0,0000           100,00%
*     0+    0                          304,0000        0,0000           100,00%
*     0+    0                          275,0000        0,0000           100,00%
*     0+    0                          268,0000        0,0000           100,00%
      0     0      133,0000   116      268,0000      133,0000      105   50,37%
      0     0      133,0000   116      268,0000     Cuts: 123      167   50,37%
      0     0      133,0000   116      268,0000     Cuts: 129      232   50,37%
*     0+    0                          265,0000      133,0000            49,81%
*     0+    0                          262,0000      133,0000            49,24%
      0     2      136,5714   123      262,0000      142,2500      260   45,71%
Elapsed time = 0,08 sec. (34,05 ticks, tree = 0,02 MB, solutions = 6)
   2066  1060      249,4171    80      262,0000      186,9328    47594   28,65%
*  2386+ 1245                          259,0000      190,1517            26,58%
*  3582+ 1958                          257,0000      204,8986            20,27%
*  4641+ 2329                          255,0000      213,7152            16,19%

Performing restart 1

Repeating presolve.
Tried aggregator 2 times.
MIP Presolve eliminated 19 rows and 9 columns.
MIP Presolve added 18 rows and 0 columns.
MIP Presolve modified 12 coefficients.
Aggregator did 3 substitutions.
Reduced MIP has 224 rows, 228 columns, and 852 nonzeros.
Reduced MIP has 228 binaries, 0 generals, 0 SOSs, and 0 indicators.
Presolve time = 0,00 sec. (1,09 ticks)
Tried aggregator 1 time.
Reduced MIP has 224 rows, 228 columns, and 852 nonzeros.
Reduced MIP has 228 binaries, 0 generals, 0 SOSs, and 0 indicators.
Presolve time = 0,00 sec. (0,70 ticks)
Represolve time = 0,01 sec. (5,05 ticks)
   4701     0      144,6385   170      255,0000      Cuts: 13   135895   15,20%
   4701     0      146,9822   170      255,0000       Cuts: 6   135969   15,20%
   4701     0      147,6916   170      255,0000      Cuts: 10   135997   15,20%
   4701     0      149,0553   170      255,0000       Cuts: 8   136066   15,20%
*  4701+    0                          254,0000      216,2311            14,87%
   4701     2      149,0553   228      254,0000      216,2311   136066   14,87%
   5530   552      205,9485   154      254,0000      216,2311   160287   14,87%
   8538  2606      252,3098   151      254,0000      216,2311   273642   14,87%

Performing restart 2

Repeating presolve.
Tried aggregator 1 time.
Reduced MIP has 224 rows, 228 columns, and 852 nonzeros.
Reduced MIP has 228 binaries, 0 generals, 0 SOSs, and 0 indicators.
Presolve time = 0,00 sec. (0,50 ticks)
Tried aggregator 1 time.
Reduced MIP has 224 rows, 228 columns, and 852 nonzeros.
Reduced MIP has 228 binaries, 0 generals, 0 SOSs, and 0 indicators.
Presolve time = 0,00 sec. (0,70 ticks)
Represolve time = 0,01 sec. (12,03 ticks)
  10945     0      151,2838   228      254,0000       Cuts: 9   359339   14,87%
  10945     0      151,8735   228      254,0000      Fract: 3   359377   14,87%
  10945     0      152,1557   228      254,0000       Cuts: 3   359404   14,87%
  10945     0      152,2375   228      254,0000      Fract: 3   359419   14,87%
  10945     0      152,2845   228      254,0000      Fract: 1   359430   14,87%
  10945     0      152,9776   228      254,0000      Fract: 4   359490   14,87%
  10945     2      152,9776   228      254,0000      216,2311   359490   14,87%
  14559  1962        cutoff            254,0000      218,8488   435745   13,84%
* 18259  2318      integral     0      253,0000      238,0749   525152    5,90%
  18524  2075        cutoff            253,0000      239,2910   534870    5,42%
* 18584+ 2015                          252,0000      240,4792             4,57%
* 19633   887      integral     0      250,0000      244,8099   555341    2,08%
  19961  1361        cutoff            250,0000      244,8099   549324    2,08%

Clique cuts applied:  54
Cover cuts applied:  310
Mixed integer rounding cuts applied:  2
Zero-half cuts applied:  2
Gomory fractional cuts applied:  18

Root node processing (before b&c):
  Real time             =    0,08 sec. (33,95 ticks)
Parallel b&c, 16 threads:
  Real time             =    2,89 sec. (2248,39 ticks)
  Sync time (average)   =    0,84 sec.
  Wait time (average)   =    0,01 sec.
                          ------------
Total (root+branch&cut) =    2,97 sec. (2282,34 ticks)
